NAME          STRESS_16

OBJSENSE
 MIN
ROWS
 N  OBJ
 G  C1
 G  C2
 G  C3
 G  C4
 G  C5
 G  C6
 G  C7
 G  C8
 G  C9
 G  C10
 G  C11
 G  C12
 L  C13
 L  C14
 L  C15
 L  C16
 L  C17
 L  C18
 L  C19
 L  C20
 L  C21
 L  C22
 L  C23
 L  C24
 L  C25
 L  C26
 L  C27
 L  C28
 L  C29
 L  C30
 L  C31
 L  C32
COLUMNS
    MARK0000  'MARKER'                 'INTORG'
    X1        OBJ 5
    X1        C1  2
    X1        C2  1
    X1        C13 2
    X1        C21 1
    X2        OBJ 6
    X2        C1  1
    X2        C3  2
    X2        C13 3
    X2        C14 1
    X3        OBJ 4
    X3        C2  3
    X3        C4  1
    X3        C13 1
    X3        C15 1
    X4        OBJ 7
    X4        C1  1
    X4        C4  2
    X4        C14 1
    X4        C22 1
    X5        OBJ 5
    X5        C2  2
    X5        C3  1
    X5        C13 2
    X5        C16 1
    X6        OBJ 6
    X6        C3  2
    X6        C5  2
    X6        C13 1
    X6        C23 1
    X7        OBJ 5
    X7        C4  2
    X7        C6  2
    X7        C13 1
    X7        C24 1
    X8        OBJ 7
    X8        C5  2
    X8        C7  2
    X8        C13 1
    X8        C25 1
    X9        OBJ 6
    X9        C6  2
    X9        C8  2
    X9        C13 1
    X9        C26 1
    X10       OBJ 8
    X10       C7  2
    X10       C9  2
    X10       C13 1
    X10       C27 1
    X11       OBJ 7
    X11       C8  2
    X11       C10 2
    X11       C13 1
    X11       C28 1
    X12       OBJ 6
    X12       C9  2
    X12       C11 2
    X12       C13 1
    X12       C29 1
    X13       OBJ 7
    X13       C10 2
    X13       C12 2
    X13       C13 1
    X13       C30 1
    X14       OBJ 8
    X14       C11 2
    X14       C12 3
    X14       C13 1
    X14       C31 1
    X15       OBJ 6
    X15       C5  1
    X15       C9  2
    X15       C13 1
    X15       C32 1
    X16       OBJ 7
    X16       C6  1
    X16       C10 2
    X16       C13 1
    X16       C32 1
    Z1        OBJ 8
    Z1        C1  2
    Z1        C13 1
    Z1        C21 1
    Z2        OBJ 7
    Z2        C2  2
    Z2        C13 1
    Z2        C22 1
    Z3        OBJ 9
    Z3        C3  3
    Z3        C13 1
    Z3        C23 1
    Z4        OBJ 8
    Z4        C4  2
    Z4        C13 1
    Z4        C24 1
    Z5        OBJ 7
    Z5        C5  2
    Z5        C13 1
    Z5        C25 1
    Z6        OBJ 8
    Z6        C6  2
    Z6        C13 1
    Z6        C26 1
    Z7        OBJ 9
    Z7        C7  2
    Z7        C13 1
    Z7        C27 1
    Z8        OBJ 10
    Z8        C8  2
    Z8        C13 1
    Z8        C28 1
    Z9        OBJ 9
    Z9        C9  2
    Z9        C13 1
    Z9        C29 1
    Z10       OBJ 10
    Z10       C10 2
    Z10       C13 1
    Z10       C30 1
    Z11       OBJ 9
    Z11       C11 2
    Z11       C13 1
    Z11       C31 1
    Z12       OBJ 10
    Z12       C12 3
    Z12       C13 1
    Z12       C32 1
    Y8        OBJ 2
    Y8        C5  1
    Y8        C11 1
    Y8        C28 1
    Y8        C29 1
RHS
    RHS1      C1  15
    RHS1      C2  15
    RHS1      C3  14
    RHS1      C4  13
    RHS1      C5  13
    RHS1      C6  12
    RHS1      C7  12
    RHS1      C8  11
    RHS1      C9  11
    RHS1      C10 10
    RHS1      C11 10
    RHS1      C12 9
    RHS1      C13 52
    RHS1      C14 7
    RHS1      C15 7
    RHS1      C16 7
    RHS1      C17 7
    RHS1      C18 7
    RHS1      C19 7
    RHS1      C20 7
    RHS1      C21 7
    RHS1      C22 7
    RHS1      C23 7
    RHS1      C24 7
    RHS1      C25 7
    RHS1      C26 7
    RHS1      C27 7
    RHS1      C28 7
    RHS1      C29 7
    RHS1      C30 7
    RHS1      C31 7
    RHS1      C32 7
BOUNDS
 UP BND1      X1  9
 UP BND1      X2  9
 UP BND1      X3  9
 UP BND1      X4  9
 UP BND1      X5  9
 UP BND1      X6  9
 UP BND1      X7  9
 UP BND1      X8  9
 UP BND1      X9  9
 UP BND1      X10 9
 UP BND1      X11 9
 UP BND1      X12 9
 UP BND1      X13 9
 UP BND1      X14 9
 UP BND1      X15 9
 UP BND1      X16 9
 BV BND1      Z1
 BV BND1      Z2
 BV BND1      Z3
 BV BND1      Z4
 BV BND1      Z5
 BV BND1      Z6
 BV BND1      Z7
 BV BND1      Z8
 BV BND1      Z9
 BV BND1      Z10
 BV BND1      Z11
 BV BND1      Z12
 UP BND1      Y1  7
 UP BND1      Y2  7
 UP BND1      Y3  7
 UP BND1      Y4  7
 UP BND1      Y5  7
 UP BND1      Y6  7
 UP BND1      Y7  7
 UP BND1      Y8  7
ENDATA